NAME: dj38
COMMENT: solucao exata obtida pelo professor utilizando um metodo branch-and-bound simples
COMMENT: 11487.058s
TYPE: TOUR
DIMENSION: 38
TOTAL_WEIGHT: 6656
TOUR_SECTION
1
2
4
3
5
6
7
8
9
12
11
19
18
17
16
13
15
20
23
26
25
22
24
28
27
31
36
34
33
38
37
35
32
30
29
21
14
10
EOF